NAME : amz0450.85269_77769.tour
COMMENT : Cost = 85269_77769
COMMENT : Found by LKH-AMZ [Keld Helsgaun] Sun May 11 14:32:22 2025
COMMENT : TW viol.: 0 #: 0
TYPE : TOUR
DIMENSION : 128
TOUR_SECTION
119
2
100
43
8
110
87
5
125
56
42
34
23
74
105
64
54
57
111
81
45
107
22
24
15
36
44
73
117
51
39
103
7
70
10
78
101
26
69
30
122
89
82
77
92
83
109
128
84
13
52
123
86
31
14
41
40
59
37
48
68
25
46
27
75
80
50
126
95
71
60
38
47
63
72
98
12
28
102
79
85
16
115
65
32
124
114
62
11
58
99
29
21
120
118
112
4
116
6
9
49
121
66
88
94
17
1
127
35
61
3
55
53
106
113
96
76
93
18
97
108
19
20
67
91
90
104
33
-1
EOF
